Annee_2/Semestre_7/Recherche_Operationnelle/TP1/PbEcommerce3.dat
# Données pour le problème : Affectation de commandes de clients au magasin cas 3

data;

set COMMANDE :=
D1
D2;

set FLUIDE :=
F1
F2;

set MAGASIN :=
M1
M2
M3;

param fluidecommande : F1 F2 :=
D1 2 0
D2 1 3;

param fluidemagasin : F1 F2 :=
M1 2 1
M2 1 2
M3 2 1;

param coutmagasin : F1 F2 :=
M1 1 1
M2 2 3
M3 3 2;

param coutfixe : D1 D2 :=
M1 110 110
M2 90 90
M3 100 100;

param coutvariable : D1 D2 :=
M1 10 2
M2 1 20
M3 5 10;

end;
